NAME : XML100_2262_21
DIMENSION : 101
NB_CLUSTERS : 6
CLUSTERING_ALG : KMeans
CLUSTERING_PARAMS : k(5)
CLUSTERS
1 0
2 2 6 11 12 14 23 33 36 38 40 45 48 50 59 60 63 66 71 73 75 76 78 81 82 85 86 90 92 98
3 7 9 15 21 30 35 41 53 64 68 69 72 77 89 91 93
4 1 4 17 25 26 27 28 29 31 34 37 42 47 57 65 80 87 94 97 99
5 3 5 8 10 13 22 39 44 46 49 52 54 56 61 62 74 79 83 84 95 100
6 16 18 19 20 24 32 43 51 55 58 67 70 88 96
EOF